{"Models":{"api/Global.BattleSystem.BattleState.yml":[{"SourceFilePath":"api/Global.BattleSystem.BattleState.yml","FilePath":"vfvk5gou.2fj"}],"api/Global.BattleJournal.yml":[{"SourceFilePath":"api/Global.BattleJournal.yml","FilePath":"aupyp1pw.m4f"}],"api/Global.DialogueButton.yml":[{"SourceFilePath":"api/Global.DialogueButton.yml","FilePath":"insuwj43.tmd"}],"api/Global.DontDestroy.yml":[{"SourceFilePath":"api/Global.DontDestroy.yml","FilePath":"gwkhau5i.igb"}],"api/Global.AbilityIndication.yml":[{"SourceFilePath":"api/Global.AbilityIndication.yml","FilePath":"pz01m4ne.wee"}],"api/Global.DialogueHUD.yml":[{"SourceFilePath":"api/Global.DialogueHUD.yml","FilePath":"v5cs2r3s.sqp"}],"api/Global.DialogueHUD.Outcome.yml":[{"SourceFilePath":"api/Global.DialogueHUD.Outcome.yml","FilePath":"rxi2fvjh.g3p"}],"api/Global.ChatController.yml":[{"SourceFilePath":"api/Global.ChatController.yml","FilePath":"54nfabgc.wix"}],"api/Global.BattleSystem.yml":[{"SourceFilePath":"api/Global.BattleSystem.yml","FilePath":"qs0sv23h.00l"}],"api/Global.EndLevelOnEnter.yml":[{"SourceFilePath":"api/Global.EndLevelOnEnter.yml","FilePath":"f5j2btyh.qkh"}],"api/Global.DropdownAttribute.yml":[{"SourceFilePath":"api/Global.DropdownAttribute.yml","FilePath":"xyobf4mb.uoj"}],"api/Global.DoorScript.yml":[{"SourceFilePath":"api/Global.DoorScript.yml","FilePath":"tbwiddkz.x2f"}],"api/Global.AudioManager.yml":[{"SourceFilePath":"api/Global.AudioManager.yml","FilePath":"lpg5vrrl.o1q"}],"api/Global.GameMessageController.yml":[{"SourceFilePath":"api/Global.GameMessageController.yml","FilePath":"ovjviimu.s5y"}],"api/Global.GridObject.yml":[{"SourceFilePath":"api/Global.GridObject.yml","FilePath":"hzvp21l5.blb"}],"api/Global.DropdownSample.yml":[{"SourceFilePath":"api/Global.DropdownSample.yml","FilePath":"sq1wysc2.lnn"}],"api/Global.FloatingText.yml":[{"SourceFilePath":"api/Global.FloatingText.yml","FilePath":"yahiaad2.gkn"}],"api/Global.EnvMapAnimator.yml":[{"SourceFilePath":"api/Global.EnvMapAnimator.yml","FilePath":"mt03s0jp.3jj"}],"api/Global.GameEvents.yml":[{"SourceFilePath":"api/Global.GameEvents.yml","FilePath":"hj3fep0k.anb"}],"api/Global.GameData.yml":[{"SourceFilePath":"api/Global.GameData.yml","FilePath":"0o3kw5jg.34f"}],"api/Global.InfoHUD.yml":[{"SourceFilePath":"api/Global.InfoHUD.yml","FilePath":"w1wekop4.bdy"}],"api/Global.GetItemNameCallback.yml":[{"SourceFilePath":"api/Global.GetItemNameCallback.yml","FilePath":"wfof0pcg.gpm"}],"api/Global.ItemDrag.yml":[{"SourceFilePath":"api/Global.ItemDrag.yml","FilePath":"rjr45cu5.igy"}],"api/Global.GridSystem.yml":[{"SourceFilePath":"api/Global.GridSystem.yml","FilePath":"nhwt1xcg.zm1"}],"api/Global.JSONReader.CurrentWorld.yml":[{"SourceFilePath":"api/Global.JSONReader.CurrentWorld.yml","FilePath":"q4p1p1ek.i0p"}],"api/Global.GroupInfoHUD.yml":[{"SourceFilePath":"api/Global.GroupInfoHUD.yml","FilePath":"usl2razd.f0e"}],"api/Global.JSONReader.DialogueInfo.yml":[{"SourceFilePath":"api/Global.JSONReader.DialogueInfo.yml","FilePath":"z0tpamxh.s21"}],"api/Global.Hero.yml":[{"SourceFilePath":"api/Global.Hero.yml","FilePath":"kfpbvinf.auu"}],"api/Global.GameManager.yml":[{"SourceFilePath":"api/Global.GameManager.yml","FilePath":"2l4ygjcf.531"}],"api/Global.JSONReader.Level.yml":[{"SourceFilePath":"api/Global.JSONReader.Level.yml","FilePath":"502fss3h.rjp"}],"api/Global.JSONReader.Levels.yml":[{"SourceFilePath":"api/Global.JSONReader.Levels.yml","FilePath":"rhd3bx0h.pqw"}],"api/Global.JSONReader.DialogueTree.yml":[{"SourceFilePath":"api/Global.JSONReader.DialogueTree.yml","FilePath":"aww5avfb.lj4"}],"api/Global.JSONReader.NarrativeData.yml":[{"SourceFilePath":"api/Global.JSONReader.NarrativeData.yml","FilePath":"utwkonmf.1ra"}],"api/Global.JSONReader.MainCharacter.yml":[{"SourceFilePath":"api/Global.JSONReader.MainCharacter.yml","FilePath":"qw23rbj4.0ai"}],"api/Global.HealthBarUnit.yml":[{"SourceFilePath":"api/Global.HealthBarUnit.yml","FilePath":"l3z2vpn0.yu4"}],"api/Global.JSONReader.QuestLevel.yml":[{"SourceFilePath":"api/Global.JSONReader.QuestLevel.yml","FilePath":"smhju0tp.xyh"}],"api/Global.JSONReader.Metrics.yml":[{"SourceFilePath":"api/Global.JSONReader.Metrics.yml","FilePath":"mbykbkld.p1e"}],"api/Global.JSONReader.UnitGroup.yml":[{"SourceFilePath":"api/Global.JSONReader.UnitGroup.yml","FilePath":"0qpe53gw.htc"}],"api/Global.JSONReader.EnemySpeakerInfo.yml":[{"SourceFilePath":"api/Global.JSONReader.EnemySpeakerInfo.yml","FilePath":"jrfhhiwe.y3i"}],"api/Global.JSONReader.UnitTypeCoefficient.yml":[{"SourceFilePath":"api/Global.JSONReader.UnitTypeCoefficient.yml","FilePath":"c1u35eie.eg3"}],"api/Global.JSONReader.PowerLevelAttribute.yml":[{"SourceFilePath":"api/Global.JSONReader.PowerLevelAttribute.yml","FilePath":"sxd2yqvi.yt5"}],"api/Global.JSONReader.LevelUnits.yml":[{"SourceFilePath":"api/Global.JSONReader.LevelUnits.yml","FilePath":"ktfifrq0.caa"}],"api/Global.JSONReader.PlayerCharacterAnswer.yml":[{"SourceFilePath":"api/Global.JSONReader.PlayerCharacterAnswer.yml","FilePath":"kzqn3qr2.azo"}],"api/Global.JSONReader.UnitsStats.yml":[{"SourceFilePath":"api/Global.JSONReader.UnitsStats.yml","FilePath":"ebhe3xze.nwj"}],"api/Global.JSONReader.UnitJSON.yml":[{"SourceFilePath":"api/Global.JSONReader.UnitJSON.yml","FilePath":"tcrh0v1y.0x5"}],"api/Global.JSONReader.GameWorld.yml":[{"SourceFilePath":"api/Global.JSONReader.GameWorld.yml","FilePath":"snrmy505.3mb"}],"api/Global.JSONReader.QuestLevels.yml":[{"SourceFilePath":"api/Global.JSONReader.QuestLevels.yml","FilePath":"a4zprur4.2zw"}],"api/Global.JSONReader.yml":[{"SourceFilePath":"api/Global.JSONReader.yml","FilePath":"w4svpqfa.bow"}],"api/Global.JSONReader.UnitsData.yml":[{"SourceFilePath":"api/Global.JSONReader.UnitsData.yml","FilePath":"p1yxinbj.spv"}],"api/Global.KnowledgeBase.KBState.yml":[{"SourceFilePath":"api/Global.KnowledgeBase.KBState.yml","FilePath":"n5w1smnm.5gh"}],"api/Global.JSONReader.QuestJSON.yml":[{"SourceFilePath":"api/Global.JSONReader.QuestJSON.yml","FilePath":"hmwwzw0u.bko"}],"api/Global.LevelGenerator.yml":[{"SourceFilePath":"api/Global.LevelGenerator.yml","FilePath":"oq4wgd5c.niw"}],"api/Global.ObjectForInfoHUD.yml":[{"SourceFilePath":"api/Global.ObjectForInfoHUD.yml","FilePath":"o3bmxsmx.iug"}],"api/Global.KnowledgeBase.yml":[{"SourceFilePath":"api/Global.KnowledgeBase.yml","FilePath":"5q0scczn.mk3"}],"api/Global.PlayerInput.IPlayerActions.yml":[{"SourceFilePath":"api/Global.PlayerInput.IPlayerActions.yml","FilePath":"ir2wje3i.0dh"}],"api/Global.PaletteSelection.yml":[{"SourceFilePath":"api/Global.PaletteSelection.yml","FilePath":"ayk1r5wc.d1k"}],"api/Global.ProceduralFloor.yml":[{"SourceFilePath":"api/Global.ProceduralFloor.yml","FilePath":"34l2gn32.p2v"}],"api/Global.PlayerInput.yml":[{"SourceFilePath":"api/Global.PlayerInput.yml","FilePath":"tzjmsg4y.ibh"}],"api/Global.PlayerInput.PlayerActions.yml":[{"SourceFilePath":"api/Global.PlayerInput.PlayerActions.yml","FilePath":"a0sjoenh.cty"}],"api/Global.PalettesData.yml":[{"SourceFilePath":"api/Global.PalettesData.yml","FilePath":"rkxufpqm.5kw"}],"api/Global.Pause.UIState.yml":[{"SourceFilePath":"api/Global.Pause.UIState.yml","FilePath":"wsgnd5eq.prb"}],"api/Global.QuestButton.yml":[{"SourceFilePath":"api/Global.QuestButton.yml","FilePath":"enlru53q.clc"}],"api/Global.QuestMenu.yml":[{"SourceFilePath":"api/Global.QuestMenu.yml","FilePath":"py2j5i1j.idd"}],"api/Global.MainMenu.yml":[{"SourceFilePath":"api/Global.MainMenu.yml","FilePath":"4p4iyej1.xep"}],"api/Global.OutcomeButtons.yml":[{"SourceFilePath":"api/Global.OutcomeButtons.yml","FilePath":"3khm2u1e.j5s"}],"api/Global.ReflectionExtensions.yml":[{"SourceFilePath":"api/Global.ReflectionExtensions.yml","FilePath":"b5rtukzz.0bu"}],"api/Global.SceneController.yml":[{"SourceFilePath":"api/Global.SceneController.yml","FilePath":"n4xhvcv5.qk3"}],"api/Global.Unit.UnitType.yml":[{"SourceFilePath":"api/Global.Unit.UnitType.yml","FilePath":"jjnvstvs.m2y"}],"api/Global.RecruitSystem.yml":[{"SourceFilePath":"api/Global.RecruitSystem.yml","FilePath":"wslbxuqg.vez"}],"api/Global.UnitHUD.yml":[{"SourceFilePath":"api/Global.UnitHUD.yml","FilePath":"pz0eooqk.qhh"}],"api/Global.Pause.yml":[{"SourceFilePath":"api/Global.Pause.yml","FilePath":"idqghyic.whf"}],"api/Global.ScriptRunner.yml":[{"SourceFilePath":"api/Global.ScriptRunner.yml","FilePath":"g1n1prmf.4bk"}],"api/Global.PointGizmo.yml":[{"SourceFilePath":"api/Global.PointGizmo.yml","FilePath":"42iqe2lv.2b5"}],"api/Global.WorldEnemy.yml":[{"SourceFilePath":"api/Global.WorldEnemy.yml","FilePath":"ue5svwzk.qdl"}],"api/Global.ReflectionItem.yml":[{"SourceFilePath":"api/Global.ReflectionItem.yml","FilePath":"0koll0sc.lyx"}],"api/Global.Sound.yml":[{"SourceFilePath":"api/Global.Sound.yml","FilePath":"w2zd1ejb.v13"}],"api/Global.ReflectionItemType.yml":[{"SourceFilePath":"api/Global.ReflectionItemType.yml","FilePath":"wf03lcco.cfi"}],"api/Global.Unit.yml":[{"SourceFilePath":"api/Global.Unit.yml","FilePath":"iz0ovtmy.aiz"}],"api/Global.WorldButton.yml":[{"SourceFilePath":"api/Global.WorldButton.yml","FilePath":"m2xz14cm.e5r"}],"api/Global.WorldManager.yml":[{"SourceFilePath":"api/Global.WorldManager.yml","FilePath":"hevk412x.qou"}],"api/Global.UnitClass.yml":[{"SourceFilePath":"api/Global.UnitClass.yml","FilePath":"kbodrkdb.zqs"}],"api/Global.SwappingInterface.yml":[{"SourceFilePath":"api/Global.SwappingInterface.yml","FilePath":"cfr0r2fu.4oe"}],"api/Global.ReflectionSystem.yml":[{"SourceFilePath":"api/Global.ReflectionSystem.yml","FilePath":"dg5wu0jj.dni"}],"api/Global.yml":[{"SourceFilePath":"api/Global.yml","FilePath":"0ht5tagw.nrd"}],"api/Global.UnitGroupInfo.yml":[{"SourceFilePath":"api/Global.UnitGroupInfo.yml","FilePath":"0v4z2d1r.tvu"}]}}